5 5
7 2 4 7 3 8 5 3 20 5 13 1 10 4 9 2 6 5 3 16 1 14 2 11 5 10 4 15 3 4 3 1 5 5 15 5 2 13 3 8 4 4 5 12 1 2 1 1 19 2 1 20 2 15
8 2 4 4 3 16 3 1 15 5 10 3 9 3 5 4 3 14 4 20 4 5 3 2 9 1 13 4 5 1 3 6 3 2 9 3 13 5 8 2 1 15 2 8 4 2 9 1 6 3 17 5 11
4 3 5 19 3 13 2 6 5 4 18 5 10 2 10 1 13 3 8 1 5 3 3 1 10 4 12 2 8
4 4 4 9 1 17 2 5 3 6 4 1 15 2 3 3 3 5 20 2 3 2 1 11 3 1 2 2 2 3 17
7 2 1 16 3 9 4 3 11 5 6 4 19 2 15 1 4 13 5 4 8 5 11 3 13 1 2 2 13 1 5 7 1 4 16 5 2 12 1 19 5 4 4 2 3 5